[2026-03-24T13:36:44.083Z] Pipeline "set_vm-3-t1_vm-3-t1_s003_g003" → 2026_03_24_13_36_44_set_vm-3-t1_vm-3-t1_s003_g003_max.sol
Set parameter Username
Set parameter LicenseID to value 2796068
Set parameter LogFile to value "gurobi.log"
Using license file /opt/gurobi/gurobi.lic
Academic license - for non-commercial use only - expires 2027-03-23

Gurobi Optimizer version 13.0.1 build v13.0.1rc0 (linux64 - "Ubuntu 24.04.4 LTS")
Copyright (c) 2026, Gurobi Optimization, LLC

Warning: Duplicate section found (read 'binary') - Is a variable name equal to an LP file format keyword?
Warning: Duplicate section found (read 'binary') - Is a variable name equal to an LP file format keyword?
Warning: Duplicate section found (read 'binary') - Is a variable name equal to an LP file format keyword?
Warning: Duplicate section found (read 'binary') - Is a variable name equal to an LP file format keyword?
Warning: Duplicate section found (read 'binary') - Is a variable name equal to an LP file format keyword?
Warning: Duplicate section found (read 'binary') - Is a variable name equal to an LP file format keyword?
Warning: Duplicate section found (read 'binary') - Is a variable name equal to an LP file format keyword?
Warning: Duplicate section found (read 'binary') - Is a variable name equal to an LP file format keyword?
Warning: Duplicate section found (read 'binary') - Is a variable name equal to an LP file format keyword?
Warning: Duplicate section found (read 'binary') - Is a variable name equal to an LP file format keyword?
Warning: Further warnings of this type will be omitted.
Read LP format model from file /root/bgw/data/uploads/2026_03_24_13_36_44_set_vm-3-t1_vm-3-t1_s003_g003_max.lp
Reading time = 0.00 seconds
: 785 rows, 133 columns, 2339 nonzeros

Using Gurobi shared library /opt/gurobi1301/linux64/lib/libgurobi.so.13.0.1

CPU model: AMD EPYC-Genoa Processor, instruction set [SSE2|AVX|AVX2|AVX512]
Thread count: 16 physical cores, 16 logical processors, using up to 16 threads

Optimize a model with 785 rows, 133 columns and 2339 nonzeros (Max)
Model fingerprint: 0xb5e5ecab
Model has 16 linear objective coefficients
Variable types: 29 continuous, 104 integer (104 binary)
Coefficient statistics:
  Matrix range     [1e+00, 1e+01]
  Objective range  [1e+00, 1e+00]
  Bounds range     [1e+00, 1e+00]
  RHS range        [1e+00, 2e+01]

Found heuristic solution: objective 16.0000000
Presolve removed 188 rows and 40 columns
Presolve time: 0.00s
Presolved: 597 rows, 93 columns, 1841 nonzeros
Variable types: 0 continuous, 93 integer (88 binary)
Found heuristic solution: objective 23.0000000

Root relaxation: objective 8.600000e+01, 34 iterations, 0.00 seconds (0.00 work units)

    Nodes    |    Current Node    |     Objective Bounds      |     Work
 Expl Unexpl |  Obj  Depth IntInf | Incumbent    BestBd   Gap | It/Node Time

     0     0   86.00000    0   15   23.00000   86.00000   274%     -    0s
H    0     0                      37.0000000   86.00000   132%     -    0s
H    0     0                      44.0000000   86.00000  95.5%     -    0s
     0     0   86.00000    0   14   44.00000   86.00000  95.5%     -    0s
     0     0   86.00000    0   15   44.00000   86.00000  95.5%     -    0s
     0     0   86.00000    0   13   44.00000   86.00000  95.5%     -    0s
     0     0   86.00000    0   13   44.00000   86.00000  95.5%     -    0s
     0     0   85.36364    0   14   44.00000   85.36364  94.0%     -    0s
     0     0   85.36364    0   13   44.00000   85.36364  94.0%     -    0s
     0     0   79.00000    0   14   44.00000   79.00000  79.5%     -    0s
     0     0   79.00000    0   14   44.00000   79.00000  79.5%     -    0s
     0     0   79.00000    0   13   44.00000   79.00000  79.5%     -    0s
     0     0   77.72727    0   13   44.00000   77.72727  76.7%     -    0s
     0     0   77.72727    0   14   44.00000   77.72727  76.7%     -    0s
     0     0   77.72727    0   14   44.00000   77.72727  76.7%     -    0s
     0     0   77.09091    0   14   44.00000   77.09091  75.2%     -    0s
     0     0   77.09091    0   13   44.00000   77.09091  75.2%     -    0s
     0     0   77.09091    0   13   44.00000   77.09091  75.2%     -    0s
     0     0   71.57576    0   14   44.00000   71.57576  62.7%     -    0s
     0     0   71.57576    0   14   44.00000   71.57576  62.7%     -    0s
     0     0   71.36364    0   14   44.00000   71.36364  62.2%     -    0s
     0     0   71.36364    0   14   44.00000   71.36364  62.2%     -    0s
     0     2   71.36364    0   14   44.00000   71.36364  62.2%     -    0s

Cutting planes:
  Gomory: 10
  MIR: 4
  Inf proof: 2
  Zero half: 3
  Mod-K: 1

Explored 611 nodes (8535 simplex iterations) in 0.15 seconds (0.12 work units)
Thread count was 16 (of 16 available processors)

Solution count 4: 44 37 23 16 

Optimal solution found (tolerance 1.00e-04)
Best objective 4.400000000000e+01, best bound 4.400000000000e+01, gap 0.0000%

Wrote result file '/root/bgw/data/results/2026_03_24_13_36_44_set_vm-3-t1_vm-3-t1_s003_g003_max.sol'

